Route #1: 10 19 35 33 28 25 15 31 41 5 44 12 32 4 36 21 39
Route #2: 1 6 42 20 13 22 17 26 34 9 27 7 23 30 43
Route #3: 40 11 24 37 18 2 45 3 38 8 14 16 29
Route #4: 
Route #5: 
cost 1122.0640941513357
